sat
((|B0| false))
((|B1| true))
((|B10| true))
((|B11| true))
((|B12| true))
((|B13| true))
((|B14| true))
((|B15| true))
((|B16| true))
((|B17| true))
((|B18| true))
((|B19| true))
((|B2| true))
((|B20| true))
((|B21| true))
((|B22| true))
((|B23| true))
((|B24| true))
((|B25| true))
((|B26| true))
((|B27| true))
((|B28| true))
((|B29| false))
((|B3| true))
((|B30| false))
((|B31| false))
((|B32| true))
((|B33| true))
((|B34| true))
((|B35| true))
((|B36| true))
((|B37| true))
((|B38| true))
((|B39| true))
((|B4| true))
((|B40| true))
((|B41| true))
((|B42| true))
((|B43| true))
((|B44| true))
((|B45| false))
((|B46| false))
((|B5| true))
((|B6| true))
((|B7| true))
((|B8| true))
((|B9| true))
((|__CPROVER_dead_object#1| #x00000000))
((|__CPROVER_dead_object#1$wclk$8| (- 24)))
((|__CPROVER_deallocated#1| #x00000000))
((|__CPROVER_deallocated#1$wclk$8| (- 23)))
((|__CPROVER_malloc_is_new_array#1| false))
((|__CPROVER_malloc_is_new_array#1$wclk$8| (- 22)))
((|__CPROVER_malloc_object#1| #x00000000))
((|__CPROVER_malloc_object#1$wclk$8| (- 21)))
((|__CPROVER_malloc_size#1| #x00000000))
((|__CPROVER_malloc_size#1$wclk$8| (- 20)))
((|__CPROVER_memory_leak#1| #x00000000))
((|__CPROVER_memory_leak#1$wclk$8| (- 19)))
((|__CPROVER_next_thread_id#1| #x00000000))
((|__CPROVER_next_thread_id#1$wclk$8| (- 18)))
((|__CPROVER_next_thread_id#2| #x00000001))
((|__CPROVER_next_thread_id#2$wclk$8| (- 11)))
((|__CPROVER_pipe_count#1| #x00000000))
((|__CPROVER_pipe_count#1$wclk$8| (- 17)))
((|__CPROVER_rounding_mode!0#1| #x00000000))
((|__CPROVER_rounding_mode!1#1| #x00000000))
((|__CPROVER_thread_id!0#1| #x00000000))
((|__CPROVER_thread_id!1#1| #x00000000))
((|__CPROVER_thread_id!1#2| #x00000000))
((|__CPROVER_threads_exited#1| ((as const (Array (_ BitVec 32) Bool)) false)))
((|__CPROVER_threads_exited#1$wclk$8| (- 16)))
((|goto_symex::&92;guard#1| false))
((|goto_symex::&92;guard#2| false))
((|goto_symex::&92;guard#3| true))
((|goto_symex::&92;guard#4| true))
((|main#return_value!1#1| #x00000000))
((|main::1::r!0@1| #x000000000000000000000000000000000000000000000000))
((|main::1::r!0@1#1| #x000000000000000000000000000000000000000200020000))
((|main::1::r!0@1#1$wclk$8| (- 14)))
((|main::1::r!0@1#10| #x000000000000000000000000000000000000000300000000))
((|main::1::r!0@1#10$rclk$8| (- 2)))
((|main::1::r!0@1#11| #x000000000000000000000000000000000000000300000000))
((|main::1::r!0@1#11$rclk$8| (- 1)))
((|main::1::r!0@1#12| #x000000010000000000000000000000000000000300000000))
((|main::1::r!0@1#12$wclk$8| 0))
((|main::1::r!0@1#14| #x000000000000000000000000000000000000000300000000))
((|main::1::r!0@1#14$rclk$8| (- 2)))
((|main::1::r!0@1#15| #x000000010000000000000000000000000000000300000000))
((|main::1::r!0@1#15$rclk$8| 1))
((|main::1::r!0@1#16| #x000000010000000000000000000000000000000300000000))
((|main::1::r!0@1#16$rclk$8| 2))
((|main::1::r!0@1#17| #x000000010000000000000000000000000000000300000000))
((|main::1::r!0@1#17$rclk$8| 3))
((|main::1::r!0@1#18| #x000000010000000000000000000000000000000300000000))
((|main::1::r!0@1#18$rclk$8| 4))
((|main::1::r!0@1#19| #x000000010000000000000000000000000000000300000000))
((|main::1::r!0@1#19$rclk$8| 5))
((|main::1::r!0@1#2| #x000000000000000000000000000000000000000200020000))
((|main::1::r!0@1#2$wclk$8| (- 13)))
((|main::1::r!0@1#20| #x000000010000000000000000000000000000000300000001))
((|main::1::r!0@1#20$wclk$8| 6))
((|main::1::r!0@1#3| #x000000000000000000000000000000000000000200000000))
((|main::1::r!0@1#3$wclk$8| (- 12)))
((|main::1::r!0@1#4| #x000000000000000000000000000000000000000200000000))
((|main::1::r!0@1#4$rclk$8| (- 8)))
((|main::1::r!0@1#5| #x000000000000000000000000000000000000000200000000))
((|main::1::r!0@1#5$rclk$8| (- 7)))
((|main::1::r!0@1#6| #x000000000000000000000000000000000000000200000000))
((|main::1::r!0@1#6$rclk$8| (- 6)))
((|main::1::r!0@1#7| #x000000000000000000000000000000000000000200000000))
((|main::1::r!0@1#7$rclk$8| (- 5)))
((|main::1::r!0@1#8| #x000000000000000000000000000000000000000200000000))
((|main::1::r!0@1#8$rclk$8| (- 4)))
((|main::1::r!0@1#9| #x000000000000000000000000000000000000000300000000))
((|main::1::r!0@1#9$wclk$8| (- 3)))
((|main::1::reader!0@1| #x00000000))
((|main::1::reader!0@1#1| #x00000000))
((|main::1::reader!0@1#1$wclk$8| (- 15)))
((|main::1::reader!0@1#2| #x00000001))
((|main::1::reader!0@1#2$wclk$8| (- 10)))
((|memory_model::choice_rf_0_16_0_10_F_0| false))
((|memory_model::choice_rf_0_16_0_11_F_1| false))
((|memory_model::choice_rf_0_16_0_12_F_2| true))
((|memory_model::choice_rf_0_16_1_6_F_3| false))
((|memory_model::choice_rf_0_17_0_10_F_4| false))
((|memory_model::choice_rf_0_17_0_11_F_5| false))
((|memory_model::choice_rf_0_17_0_12_F_6| true))
((|memory_model::choice_rf_0_17_1_6_F_7| false))
((|memory_model::choice_rf_0_18_0_10_F_8| false))
((|memory_model::choice_rf_0_18_0_11_F_9| false))
((|memory_model::choice_rf_0_18_0_12_F_10| true))
((|memory_model::choice_rf_0_18_1_6_F_11| false))
((|memory_model::choice_rf_0_19_0_10_F_12| false))
((|memory_model::choice_rf_0_19_0_11_F_13| false))
((|memory_model::choice_rf_0_19_0_12_F_14| true))
((|memory_model::choice_rf_0_19_1_6_F_15| false))
((|memory_model::choice_rf_0_20_0_10_F_16| false))
((|memory_model::choice_rf_0_20_0_11_F_17| false))
((|memory_model::choice_rf_0_20_0_12_F_18| true))
((|memory_model::choice_rf_0_20_1_6_F_19| false))
((|memory_model::choice_rf_0_22_0_10_F_20| false))
((|memory_model::choice_rf_0_22_0_11_F_21| false))
((|memory_model::choice_rf_0_22_0_12_F_22| false))
((|memory_model::choice_rf_0_22_0_21_F_23| true))
((|memory_model::choice_rf_0_22_1_6_F_24| false))
((|memory_model::choice_rf_0_23_0_10_F_25| false))
((|memory_model::choice_rf_0_23_0_11_F_26| false))
((|memory_model::choice_rf_0_23_0_12_F_27| false))
((|memory_model::choice_rf_0_23_0_21_F_28| true))
((|memory_model::choice_rf_0_23_1_6_F_29| false))
((|memory_model::choice_rf_1_0_0_10_F_30| false))
((|memory_model::choice_rf_1_0_0_11_F_31| false))
((|memory_model::choice_rf_1_0_0_12_F_32| false))
((|memory_model::choice_rf_1_0_0_21_F_33| true))
((|memory_model::choice_rf_1_0_0_24_F_34| false))
((|memory_model::choice_rf_1_1_0_10_F_35| false))
((|memory_model::choice_rf_1_1_0_11_F_36| false))
((|memory_model::choice_rf_1_1_0_12_F_37| false))
((|memory_model::choice_rf_1_1_0_21_F_38| false))
((|memory_model::choice_rf_1_1_0_24_F_39| true))
((|memory_model::choice_rf_1_2_0_10_F_40| false))
((|memory_model::choice_rf_1_2_0_11_F_41| false))
((|memory_model::choice_rf_1_2_0_12_F_42| false))
((|memory_model::choice_rf_1_2_0_21_F_43| false))
((|memory_model::choice_rf_1_2_0_24_F_44| true))
((|memory_model::choice_rf_1_3_0_10_F_45| false))
((|memory_model::choice_rf_1_3_0_11_F_46| false))
((|memory_model::choice_rf_1_3_0_12_F_47| false))
((|memory_model::choice_rf_1_3_0_21_F_48| false))
((|memory_model::choice_rf_1_3_0_24_F_49| true))
((|memory_model::choice_rf_1_4_0_10_F_50| false))
((|memory_model::choice_rf_1_4_0_11_F_51| false))
((|memory_model::choice_rf_1_4_0_12_F_52| false))
((|memory_model::choice_rf_1_4_0_21_F_53| false))
((|memory_model::choice_rf_1_4_0_24_F_54| true))
((|memory_model::choice_rf_1_5_0_10_F_55| false))
((|memory_model::choice_rf_1_5_0_11_F_56| false))
((|memory_model::choice_rf_1_5_0_12_F_57| false))
((|memory_model::choice_rf_1_5_0_21_F_58| false))
((|memory_model::choice_rf_1_5_0_24_F_59| true))
((|memory_model::choice_ws-ext_0_10_1_6_F_60| true))
((|memory_model::choice_ws-ext_0_11_1_6_F_61| true))
((|memory_model::choice_ws-ext_0_12_1_6_F_62| true))
((|memory_model::choice_ws-ext_0_21_1_6_F_63| true))
((|memory_model::choice_ws-ext_0_24_1_6_F_64| true))
((|pthread_create#return_value!0#1| #x00000000))
((|pthread_create#return_value!1#1| #x00000000))
((|pthread_create::1::this_thread_id!0@1#1| #x00000000))
((|pthread_create::1::this_thread_id!0@1#2| #x00000001))
((|pthread_create::1::this_thread_id!1@0#0| #x00000000))
((|pthread_create::arg!0@1#1| #x02000000))
((|pthread_create::arg!1@0#1| #x02000000))
((|pthread_create::attr!0@1#1| #x00000000))
((|pthread_create::attr!1@0#1| #x00000000))
((|pthread_create::start_routine!0@1#1| #x04000000))
((|pthread_create::start_routine!1@0#1| #x04000000))
((|pthread_create::thread!0@1#1| #x03000000))
((|pthread_create::thread!1@0#1| #x03000000))
((|pthread_join#return_value!1#1| #x00000000))
((|reader_fn#return_value!1#1| #x00000000))
((|reader_fn::$tmp::return_value_ring_empty$1!1@1#1| #x00))
((|reader_fn::$tmp::return_value_ring_empty$1!1@1#2| #x00))
((|reader_fn::$tmp::return_value_ring_empty$1!1@1#3| #x00))
((|reader_fn::$tmp::return_value_ring_empty$1!1@1#4| #x00))
((|reader_fn::1::i!1@1#1| #x00000000))
((|reader_fn::1::i!1@1#2| #x00000000))
((|reader_fn::1::i!1@1#3| #x00000001))
((|reader_fn::1::i!1@1#4| #x00000001))
((|reader_fn::1::last!1@1#1| #x00000000))
((|reader_fn::1::last!1@1#2| #x00000000))
((|reader_fn::1::last!1@1#3| #x00000003))
((|reader_fn::1::last!1@1#4| #x00000003))
((|reader_fn::1::r!1@1#1| #x00000000))
((|reader_fn::1::r!1@1#2| #x02000000))
((|reader_fn::1::val!1@1#1| #x00000000))
((|reader_fn::1::val!1@1#2| #x00000000))
((|reader_fn::1::val!1@1#3| #x00000003))
((|reader_fn::1::val!1@1#4| #x00000003))
((|reader_fn::arg!1@1#1| #x02000000))
((|ring_dequeue#return_value!1#1| #x00000000))
((|ring_dequeue#return_value!1#2| #x00000003))
((|ring_dequeue#return_value!1#3| #x00000000))
((|ring_dequeue#return_value!1#4| #x00000000))
((|ring_dequeue::1::x!1@1#1| #x00000000))
((|ring_dequeue::1::x!1@1#2| #x00000003))
((|ring_dequeue::r!1@1#1| #x02000000))
((|ring_empty#return_value!1#1| #x00))
((|ring_empty#return_value!1#2| #x00))
((|ring_empty::r!1@1#1| #x02000000))
((|ring_enqueue::r!0@1#1| #x02000000))
((|ring_enqueue::x!0@1#1| #x00000001))
((|ring_init::r!0@1#1| #x02000000))
((|t1$15$spwnclk$8| (- 9)))
((|writer_fn#return_value!1#1| #x00000000))
((|writer_fn::1::1::i!0@1#1| #x00000000))
((|writer_fn::1::1::i!0@1#2| #x00000000))
((|writer_fn::1::1::i!0@1#3| #x00000001))
((|writer_fn::1::r!0@1#1| #x00000000))
((|writer_fn::1::r!0@1#2| #x02000000))
((|writer_fn::arg!0@1#1| #x02000000))
(model 
  (define-fun |main::1::r!0@1#8| () (_ BitVec 192)
    #x000000000000000000000000000000000000000200000000)
  (define-fun |memory_model::choice_rf_1_1_0_21_F_38| () Bool
    false)
  (define-fun |memory_model::choice_ws-ext_0_11_1_6_F_61| () Bool
    true)
  (define-fun |main::1::r!0@1#16$rclk$8| () Int
    2)
  (define-fun |memory_model::choice_rf_1_2_0_24_F_44| () Bool
    true)
  (define-fun |memory_model::choice_ws-ext_0_10_1_6_F_60| () Bool
    true)
  (define-fun |memory_model::choice_rf_1_5_0_24_F_59| () Bool
    true)
  (define-fun |main::1::r!0@1#7$rclk$8| () Int
    (- 5))
  (define-fun |memory_model::choice_rf_1_5_0_10_F_55| () Bool
    false)
  (define-fun |memory_model::choice_rf_0_20_0_10_F_16| () Bool
    false)
  (define-fun |memory_model::choice_rf_1_4_0_24_F_54| () Bool
    true)
  (define-fun |main::1::r!0@1#19| () (_ BitVec 192)
    #x000000010000000000000000000000000000000300000000)
  (define-fun |memory_model::choice_rf_0_23_0_21_F_28| () Bool
    true)
  (define-fun |memory_model::choice_ws-ext_0_21_1_6_F_63| () Bool
    true)
  (define-fun |main::1::r!0@1#18| () (_ BitVec 192)
    #x000000010000000000000000000000000000000300000000)
  (define-fun |memory_model::choice_rf_0_19_0_12_F_14| () Bool
    true)
  (define-fun |memory_model::choice_rf_0_19_0_11_F_13| () Bool
    false)
  (define-fun |memory_model::choice_rf_0_19_1_6_F_15| () Bool
    false)
  (define-fun |memory_model::choice_rf_0_22_1_6_F_24| () Bool
    false)
  (define-fun |memory_model::choice_rf_1_3_0_24_F_49| () Bool
    true)
  (define-fun |memory_model::choice_rf_1_4_0_12_F_52| () Bool
    false)
  (define-fun |main::1::r!0@1#15| () (_ BitVec 192)
    #x000000010000000000000000000000000000000300000000)
  (define-fun |main::1::r!0@1#17$rclk$8| () Int
    3)
  (define-fun |main::1::r!0@1#1| () (_ BitVec 192)
    #x000000000000000000000000000000000000000200020000)
  (define-fun |memory_model::choice_rf_1_0_0_11_F_31| () Bool
    false)
  (define-fun |main::1::r!0@1#16| () (_ BitVec 192)
    #x000000010000000000000000000000000000000300000000)
  (define-fun t1$15$spwnclk$8 () Int
    (- 9))
  (define-fun |main::1::r!0@1#10| () (_ BitVec 192)
    #x000000000000000000000000000000000000000300000000)
  (define-fun |main::1::r!0@1#3$wclk$8| () Int
    (- 12))
  (define-fun |memory_model::choice_rf_0_23_0_11_F_26| () Bool
    false)
  (define-fun |memory_model::choice_rf_1_0_0_12_F_32| () Bool
    false)
  (define-fun |memory_model::choice_rf_1_1_0_24_F_39| () Bool
    true)
  (define-fun |main::1::r!0@1#2$wclk$8| () Int
    (- 13))
  (define-fun |memory_model::choice_rf_0_22_0_10_F_20| () Bool
    false)
  (define-fun |memory_model::choice_rf_0_17_0_12_F_6| () Bool
    true)
  (define-fun |memory_model::choice_rf_0_23_1_6_F_29| () Bool
    false)
  (define-fun |memory_model::choice_rf_0_18_0_10_F_8| () Bool
    false)
  (define-fun |memory_model::choice_rf_0_18_0_12_F_10| () Bool
    true)
  (define-fun |main::1::reader!0@1#2$wclk$8| () Int
    (- 10))
  (define-fun |main::1::r!0@1#18$rclk$8| () Int
    4)
  (define-fun |main::1::r!0@1#7| () (_ BitVec 192)
    #x000000000000000000000000000000000000000200000000)
  (define-fun |main::1::r!0@1#14| () (_ BitVec 192)
    #x000000000000000000000000000000000000000300000000)
  (define-fun |main::1::r!0@1#5$rclk$8| () Int
    (- 7))
  (define-fun |memory_model::choice_rf_1_4_0_21_F_53| () Bool
    false)
  (define-fun |memory_model::choice_rf_1_3_0_12_F_47| () Bool
    false)
  (define-fun |memory_model::choice_rf_1_4_0_10_F_50| () Bool
    false)
  (define-fun |memory_model::choice_rf_0_20_1_6_F_19| () Bool
    false)
  (define-fun |memory_model::choice_rf_1_0_0_21_F_33| () Bool
    true)
  (define-fun |memory_model::choice_rf_1_2_0_12_F_42| () Bool
    false)
  (define-fun |memory_model::choice_rf_1_0_0_10_F_30| () Bool
    false)
  (define-fun |memory_model::choice_rf_1_3_0_21_F_48| () Bool
    false)
  (define-fun |main::1::r!0@1#14$rclk$8| () Int
    (- 2))
  (define-fun |memory_model::choice_rf_1_0_0_24_F_34| () Bool
    false)
  (define-fun |main::1::r!0@1#1$wclk$8| () Int
    (- 14))
  (define-fun |memory_model::choice_rf_0_16_0_10_F_0| () Bool
    false)
  (define-fun |memory_model::choice_rf_0_22_0_12_F_22| () Bool
    false)
  (define-fun |main::1::r!0@1#15$rclk$8| () Int
    1)
  (define-fun |memory_model::choice_rf_0_16_0_11_F_1| () Bool
    false)
  (define-fun |memory_model::choice_rf_1_2_0_11_F_41| () Bool
    false)
  (define-fun |main::1::r!0@1#4$rclk$8| () Int
    (- 8))
  (define-fun |memory_model::choice_rf_1_1_0_11_F_36| () Bool
    false)
  (define-fun |memory_model::choice_rf_1_5_0_21_F_58| () Bool
    false)
  (define-fun |memory_model::choice_ws-ext_0_12_1_6_F_62| () Bool
    true)
  (define-fun |main::1::r!0@1#11$rclk$8| () Int
    (- 1))
  (define-fun |memory_model::choice_rf_0_20_0_12_F_18| () Bool
    true)
  (define-fun |main::1::r!0@1#6| () (_ BitVec 192)
    #x000000000000000000000000000000000000000200000000)
  (define-fun |memory_model::choice_rf_1_5_0_11_F_56| () Bool
    false)
  (define-fun |memory_model::choice_rf_1_1_0_12_F_37| () Bool
    false)
  (define-fun |memory_model::choice_rf_0_16_1_6_F_3| () Bool
    false)
  (define-fun |main::1::r!0@1#8$rclk$8| () Int
    (- 4))
  (define-fun |memory_model::choice_rf_0_22_0_11_F_21| () Bool
    false)
  (define-fun |memory_model::choice_rf_0_19_0_10_F_12| () Bool
    false)
  (define-fun |main::1::r!0@1#11| () (_ BitVec 192)
    #x000000000000000000000000000000000000000300000000)
  (define-fun |memory_model::choice_rf_1_4_0_11_F_51| () Bool
    false)
  (define-fun |main::1::r!0@1#10$rclk$8| () Int
    (- 2))
  (define-fun |memory_model::choice_rf_0_17_0_11_F_5| () Bool
    false)
  (define-fun |memory_model::choice_rf_0_18_1_6_F_11| () Bool
    false)
  (define-fun |memory_model::choice_rf_0_23_0_12_F_27| () Bool
    false)
  (define-fun |memory_model::choice_rf_1_2_0_21_F_43| () Bool
    false)
  (define-fun |memory_model::choice_rf_0_22_0_21_F_23| () Bool
    true)
  (define-fun |main::1::r!0@1#20$wclk$8| () Int
    6)
  (define-fun |main::1::r!0@1#19$rclk$8| () Int
    5)
  (define-fun |main::1::r!0@1#6$rclk$8| () Int
    (- 6))
  (define-fun |main::1::r!0@1#4| () (_ BitVec 192)
    #x000000000000000000000000000000000000000200000000)
  (define-fun |memory_model::choice_rf_0_23_0_10_F_25| () Bool
    false)
  (define-fun |main::1::r!0@1#17| () (_ BitVec 192)
    #x000000010000000000000000000000000000000300000000)
  (define-fun |memory_model::choice_rf_1_3_0_11_F_46| () Bool
    false)
  (define-fun |memory_model::choice_rf_1_3_0_10_F_45| () Bool
    false)
  (define-fun |main::1::r!0@1#9$wclk$8| () Int
    (- 3))
  (define-fun |memory_model::choice_rf_0_20_0_11_F_17| () Bool
    false)
  (define-fun |memory_model::choice_rf_0_17_0_10_F_4| () Bool
    false)
  (define-fun |main::1::r!0@1#12$wclk$8| () Int
    0)
  (define-fun |__CPROVER_next_thread_id#2$wclk$8| () Int
    (- 11))
  (define-fun |memory_model::choice_rf_0_16_0_12_F_2| () Bool
    true)
  (define-fun |memory_model::choice_rf_0_17_1_6_F_7| () Bool
    false)
  (define-fun |memory_model::choice_rf_1_2_0_10_F_40| () Bool
    false)
  (define-fun |memory_model::choice_rf_1_1_0_10_F_35| () Bool
    false)
  (define-fun |memory_model::choice_rf_0_18_0_11_F_9| () Bool
    false)
  (define-fun |main::1::r!0@1#5| () (_ BitVec 192)
    #x000000000000000000000000000000000000000200000000)
  (define-fun |memory_model::choice_rf_1_5_0_12_F_57| () Bool
    false)
  (define-fun |memory_model::choice_ws-ext_0_24_1_6_F_64| () Bool
    true)
  (define-fun |main::1::reader!0@1#1$wclk$8| () Int
    (- 15))
  (define-fun |__CPROVER_threads_exited#1$wclk$8| () Int
    (- 16))
  (define-fun |__CPROVER_pipe_count#1$wclk$8| () Int
    (- 17))
  (define-fun |__CPROVER_next_thread_id#1$wclk$8| () Int
    (- 18))
  (define-fun |__CPROVER_memory_leak#1$wclk$8| () Int
    (- 19))
  (define-fun |__CPROVER_malloc_size#1$wclk$8| () Int
    (- 20))
  (define-fun |__CPROVER_malloc_object#1$wclk$8| () Int
    (- 21))
  (define-fun |__CPROVER_malloc_is_new_array#1$wclk$8| () Int
    (- 22))
  (define-fun |__CPROVER_deallocated#1$wclk$8| () Int
    (- 23))
  (define-fun |__CPROVER_dead_object#1$wclk$8| () Int
    (- 24))
  (define-fun |goto_symex::&92;guard#4| () Bool
    true)
  (define-fun |goto_symex::&92;guard#3| () Bool
    true)
  (define-fun |goto_symex::&92;guard#2| () Bool
    false)
  (define-fun B46 () Bool
    false)
  (define-fun B45 () Bool
    false)
  (define-fun B44 () Bool
    true)
  (define-fun B43 () Bool
    true)
  (define-fun |ring_dequeue::1::x!1@1#1| () (_ BitVec 32)
    #x00000000)
  (define-fun B42 () Bool
    true)
  (define-fun |reader_fn::$tmp::return_value_ring_empty$1!1@1#1| () (_ BitVec 8)
    #x00)
  (define-fun B41 () Bool
    true)
  (define-fun |reader_fn::1::i!1@1#1| () (_ BitVec 32)
    #x00000000)
  (define-fun B40 () Bool
    true)
  (define-fun |reader_fn::1::last!1@1#1| () (_ BitVec 32)
    #x00000000)
  (define-fun B39 () Bool
    true)
  (define-fun |reader_fn::1::val!1@1#1| () (_ BitVec 32)
    #x00000000)
  (define-fun B38 () Bool
    true)
  (define-fun |reader_fn::1::r!1@1#1| () (_ BitVec 32)
    #x00000000)
  (define-fun B37 () Bool
    true)
  (define-fun |writer_fn::1::1::i!0@1#1| () (_ BitVec 32)
    #x00000000)
  (define-fun B36 () Bool
    true)
  (define-fun |writer_fn::1::r!0@1#1| () (_ BitVec 32)
    #x00000000)
  (define-fun B35 () Bool
    true)
  (define-fun |pthread_create::1::this_thread_id!0@1#1| () (_ BitVec 32)
    #x00000000)
  (define-fun B34 () Bool
    true)
  (define-fun B33 () Bool
    true)
  (define-fun |main::1::reader!0@1#1| () (_ BitVec 32)
    #x00000000)
  (define-fun B32 () Bool
    true)
  (define-fun |reader_fn::1::i!1@1#4| () (_ BitVec 32)
    #x00000001)
  (define-fun |ring_dequeue#return_value!1#3| () (_ BitVec 32)
    #x00000000)
  (define-fun |ring_dequeue#return_value!1#4| () (_ BitVec 32)
    #x00000000)
  (define-fun |reader_fn::$tmp::return_value_ring_empty$1!1@1#3| () (_ BitVec 8)
    #x00)
  (define-fun |reader_fn::$tmp::return_value_ring_empty$1!1@1#4| () (_ BitVec 8)
    #x00)
  (define-fun |reader_fn::1::val!1@1#4| () (_ BitVec 32)
    #x00000003)
  (define-fun |reader_fn::1::last!1@1#4| () (_ BitVec 32)
    #x00000003)
  (define-fun |reader_fn::1::i!1@1#3| () (_ BitVec 32)
    #x00000001)
  (define-fun |reader_fn::1::last!1@1#3| () (_ BitVec 32)
    #x00000003)
  (define-fun |reader_fn::1::val!1@1#3| () (_ BitVec 32)
    #x00000003)
  (define-fun |ring_dequeue#return_value!1#2| () (_ BitVec 32)
    #x00000003)
  (define-fun |main::1::r!0@1#20| () (_ BitVec 192)
    #x000000010000000000000000000000000000000300000001)
  (define-fun |ring_dequeue::1::x!1@1#2| () (_ BitVec 32)
    #x00000003)
  (define-fun |ring_dequeue::r!1@1#1| () (_ BitVec 32)
    #x02000000)
  (define-fun |reader_fn::$tmp::return_value_ring_empty$1!1@1#2| () (_ BitVec 8)
    #x00)
  (define-fun |ring_empty#return_value!1#2| () (_ BitVec 8)
    #x00)
  (define-fun |ring_empty::r!1@1#1| () (_ BitVec 32)
    #x02000000)
  (define-fun |reader_fn::1::i!1@1#2| () (_ BitVec 32)
    #x00000000)
  (define-fun |reader_fn::1::last!1@1#2| () (_ BitVec 32)
    #x00000000)
  (define-fun |reader_fn::1::val!1@1#2| () (_ BitVec 32)
    #x00000000)
  (define-fun |reader_fn::1::r!1@1#2| () (_ BitVec 32)
    #x02000000)
  (define-fun |reader_fn::arg!1@1#1| () (_ BitVec 32)
    #x02000000)
  (define-fun |pthread_create::1::this_thread_id!1@0#0| () (_ BitVec 32)
    #x00000000)
  (define-fun |__CPROVER_thread_id!1#2| () (_ BitVec 32)
    #x00000000)
  (define-fun |writer_fn::1::1::i!0@1#3| () (_ BitVec 32)
    #x00000001)
  (define-fun |main::1::r!0@1#12| () (_ BitVec 192)
    #x000000010000000000000000000000000000000300000000)
  (define-fun |main::1::r!0@1#9| () (_ BitVec 192)
    #x000000000000000000000000000000000000000300000000)
  (define-fun |ring_enqueue::x!0@1#1| () (_ BitVec 32)
    #x00000001)
  (define-fun |ring_enqueue::r!0@1#1| () (_ BitVec 32)
    #x02000000)
  (define-fun |writer_fn::1::1::i!0@1#2| () (_ BitVec 32)
    #x00000000)
  (define-fun |writer_fn::1::r!0@1#2| () (_ BitVec 32)
    #x02000000)
  (define-fun |writer_fn::arg!0@1#1| () (_ BitVec 32)
    #x02000000)
  (define-fun |pthread_create#return_value!0#1| () (_ BitVec 32)
    #x00000000)
  (define-fun |writer_fn#return_value!1#1| () (_ BitVec 32)
    #x00000000)
  (define-fun |ring_empty#return_value!1#1| () (_ BitVec 8)
    #x00)
  (define-fun |reader_fn#return_value!1#1| () (_ BitVec 32)
    #x00000000)
  (define-fun |main#return_value!1#1| () (_ BitVec 32)
    #x00000000)
  (define-fun |pthread_join#return_value!1#1| () (_ BitVec 32)
    #x00000000)
  (define-fun |__CPROVER_thread_id!1#1| () (_ BitVec 32)
    #x00000000)
  (define-fun |ring_dequeue#return_value!1#1| () (_ BitVec 32)
    #x00000000)
  (define-fun |__CPROVER_rounding_mode!1#1| () (_ BitVec 32)
    #x00000000)
  (define-fun |pthread_create#return_value!1#1| () (_ BitVec 32)
    #x00000000)
  (define-fun |pthread_create::arg!1@0#1| () (_ BitVec 32)
    #x02000000)
  (define-fun |pthread_create::start_routine!1@0#1| () (_ BitVec 32)
    #x04000000)
  (define-fun |pthread_create::attr!1@0#1| () (_ BitVec 32)
    #x00000000)
  (define-fun |pthread_create::thread!1@0#1| () (_ BitVec 32)
    #x03000000)
  (define-fun |goto_symex::&92;guard#1| () Bool
    false)
  (define-fun |main::1::reader!0@1#2| () (_ BitVec 32)
    #x00000001)
  (define-fun |pthread_create::1::this_thread_id!0@1#2| () (_ BitVec 32)
    #x00000001)
  (define-fun |__CPROVER_next_thread_id#2| () (_ BitVec 32)
    #x00000001)
  (define-fun |pthread_create::arg!0@1#1| () (_ BitVec 32)
    #x02000000)
  (define-fun |pthread_create::start_routine!0@1#1| () (_ BitVec 32)
    #x04000000)
  (define-fun |pthread_create::attr!0@1#1| () (_ BitVec 32)
    #x00000000)
  (define-fun |pthread_create::thread!0@1#1| () (_ BitVec 32)
    #x03000000)
  (define-fun |main::1::r!0@1#3| () (_ BitVec 192)
    #x000000000000000000000000000000000000000200000000)
  (define-fun |main::1::r!0@1#2| () (_ BitVec 192)
    #x000000000000000000000000000000000000000200020000)
  (define-fun |ring_init::r!0@1#1| () (_ BitVec 32)
    #x02000000)
  (define-fun array_of.0 () (Array (_ BitVec 32) Bool)
    ((as const (Array (_ BitVec 32) Bool)) false))
  (define-fun |__CPROVER_threads_exited#1| () (Array (_ BitVec 32) Bool)
    ((as const (Array (_ BitVec 32) Bool)) false))
  (define-fun |__CPROVER_thread_id!0#1| () (_ BitVec 32)
    #x00000000)
  (define-fun |__CPROVER_rounding_mode!0#1| () (_ BitVec 32)
    #x00000000)
  (define-fun |__CPROVER_pipe_count#1| () (_ BitVec 32)
    #x00000000)
  (define-fun |__CPROVER_next_thread_id#1| () (_ BitVec 32)
    #x00000000)
  (define-fun |__CPROVER_memory_leak#1| () (_ BitVec 32)
    #x00000000)
  (define-fun |__CPROVER_malloc_size#1| () (_ BitVec 32)
    #x00000000)
  (define-fun |__CPROVER_malloc_object#1| () (_ BitVec 32)
    #x00000000)
  (define-fun |__CPROVER_malloc_is_new_array#1| () Bool
    false)
  (define-fun |__CPROVER_deallocated#1| () (_ BitVec 32)
    #x00000000)
  (define-fun |__CPROVER_dead_object#1| () (_ BitVec 32)
    #x00000000)
  (define-fun B31 () Bool
    false)
  (define-fun B30 () Bool
    false)
  (define-fun B29 () Bool
    false)
  (define-fun B28 () Bool
    true)
  (define-fun B27 () Bool
    true)
  (define-fun B26 () Bool
    true)
  (define-fun B25 () Bool
    true)
  (define-fun B24 () Bool
    true)
  (define-fun B23 () Bool
    true)
  (define-fun B22 () Bool
    true)
  (define-fun B21 () Bool
    true)
  (define-fun B20 () Bool
    true)
  (define-fun B19 () Bool
    true)
  (define-fun B18 () Bool
    true)
  (define-fun B17 () Bool
    true)
  (define-fun B16 () Bool
    true)
  (define-fun B15 () Bool
    true)
  (define-fun B14 () Bool
    true)
  (define-fun B13 () Bool
    true)
  (define-fun B12 () Bool
    true)
  (define-fun B11 () Bool
    true)
  (define-fun B10 () Bool
    true)
  (define-fun B9 () Bool
    true)
  (define-fun B8 () Bool
    true)
  (define-fun B7 () Bool
    true)
  (define-fun B6 () Bool
    true)
  (define-fun B5 () Bool
    true)
  (define-fun B4 () Bool
    true)
  (define-fun B3 () Bool
    true)
  (define-fun B2 () Bool
    true)
  (define-fun B1 () Bool
    true)
  (define-fun B0 () Bool
    false)
  (define-fun |main::1::r!0@1| () (_ BitVec 192)
    #x000000000000000000000000000000000000000000000000)
  (define-fun |main::1::reader!0@1| () (_ BitVec 32)
    #x00000000)
)
(:added-eqs                      527
 :arith-bound-propagations-cheap 58
 :arith-bound-propagations-lp    128
 :arith-conflicts                2
 :arith-lower                    79
 :arith-make-feasible            43
 :arith-max-columns              132
 :arith-max-rows                 106
 :arith-propagations             58
 :arith-upper                    60
 :binary-propagations            665
 :bv-bit2core                    5415
 :bv-diseqs                      519
 :bv-dynamic-diseqs              5
 :bv->core-eq                    130
 :conflicts                      24
 :decisions                      443
 :del-clause                     1210
 :eliminated-applications        20
 :eliminated-vars                3
 :final-checks                   1
 :max-memory                     6.17
 :memory                         3.62
 :minimized-lits                 282
 :mk-bool-var                    4074
 :mk-clause                      3001
 :num-allocs                     2849131
 :num-checks                     1
 :propagations                   1820
 :rlimit-count                   179796
 :time                           0.02
 :total-time                     0.04)

real	0m0.048s
user	0m0.044s
sys	0m0.003s
State: AC Run_time: 0.04949331283569336